t_des = 1;
ta = 4;
te = 3;
t_iniA = 0;
t_finA = 19;
t_iniE = 4;

tiempos_A = [| 1, 0, 7,  14, 21, 1,
             | 2, 4, 9,  13, 17, 2,
             | 3, 8, 14, 16, 23, 1,
             | 4, 0, 0,  0,  22, 4|];

tiempos_E = [| 1, 5, 5, 14, 4, 4,
             | 2, 4, 9, 15, 19, 2,
             | 3, 0, 0, 0,  22, 4|];